50
12081

483 137
559 506
296 340
642 886
738 764
853 692
976 191
899 95
784 572
411 481
179 715
703 95
567 199
105 267
832 244
37 785
708 180
464 336
38 463
581 788
828 326
28 94
668 912
483 727
385 133
685 977
586 72
514 543
754 42
961 302
193 90
796 936
152 742
882 166
151 812
671 152
138 503
204 877
118 836
759 657
256 457
862 868
845 561
912 389
306 879
157 940
646 977
452 956
653 904
679 28
